32      4       
9       10      10      10      
0       0       0       0       0       3       2       3       4       
7       0       5       10      0       1       6       
8       0       6       7       0       3       7       16      19      
2       8       0       0       0       3       5       10      23      
5       6       0       10      1       2       8       18      
1       8       0       0       2       2       9       19      
5       2       0       10      2       1       13      
10      0       0       7       0       1       24      
1       7       0       9       2       2       11      25      
9       3       2       0       0       1       12      
7       0       6       0       5       1       20      
3       0       5       8       2       2       15      17      
2       1       10      2       0       1       14      
5       8       0       0       0       3       25      29      31      
4       0       0       0       9       2       28      31      
1       0       0       5       0       1       23      
4       9       0       0       0       1       25      
7       0       0       3       0       1       26      
5       9       10      3       10      2       26      30      
7       1       4       8       0       2       21      22      
4       7       0       7       0       1       28      
5       0       10      0       6       1       23      
5       4       0       0       1       2       24      27      
6       4       0       3       4       1       30      
6       6       0       7       0       1       30      
10      0       0       4       0       1       27      
6       0       1       0       8       2       28      31      
2       0       0       1       1       1       29      
1       0       0       7       9       1       32      
2       1       0       0       8       1       32      
6       0       0       7       8       1       32      
0       0       0       0       0       0       